c FILE: i160-243

c SOURCE: From steinlib

c DESCRIPTION: Steinlib instance with 160 nodes and 2544 edges.

p edge 160 2544
e 1 6
e 1 13
e 1 22
e 1 28
e 1 36
e 1 37
e 1 43
e 1 49
e 1 65
e 1 70
e 1 76
e 1 86
e 1 88
e 1 89
e 1 91
e 1 103
e 1 106
e 1 109
e 1 117
e 1 118
e 1 119
e 1 125
e 1 126
e 1 139
e 1 142
e 1 143
e 1 144
e 1 147
e 1 148
e 1 151
e 1 154
e 1 156
e 1 158
e 2 7
e 2 9
e 2 10
e 2 23
e 2 29
e 2 31
e 2 32
e 2 33
e 2 39
e 2 41
e 2 59
e 2 63
e 2 68
e 2 88
e 2 100
e 2 105
e 2 121
e 2 125
e 2 129
e 2 133
e 2 138
e 2 140
e 2 146
e 2 147
e 2 149
e 2 152
e 2 153
e 2 155
e 3 4
e 3 6
e 3 10
e 3 13
e 3 17
e 3 43
e 3 44
e 3 50
e 3 54
e 3 55
e 3 59
e 3 61
e 3 62
e 3 67
e 3 68
e 3 77
e 3 80
e 3 85
e 3 87
e 3 102
e 3 104
e 3 108
e 3 112
e 3 115
e 3 121
e 3 122
e 3 124
e 3 125
e 3 130
e 3 133
e 3 135
e 3 148
e 3 157
e 3 158
e 4 10
e 4 13
e 4 21
e 4 25
e 4 30
e 4 40
e 4 64
e 4 65
e 4 74
e 4 78
e 4 79
e 4 83
e 4 84
e 4 89
e 4 91
e 4 92
e 4 93
e 4 108
e 4 110
e 4 113
e 4 125
e 4 127
e 4 128
e 4 131
e 4 141
e 4 147
e 4 149
e 4 152
e 4 154
e 4 159
e 5 24
e 5 29
e 5 31
e 5 35
e 5 37
e 5 41
e 5 64
e 5 65
e 5 69
e 5 72
e 5 73
e 5 74
e 5 76
e 5 81
e 5 86
e 5 95
e 5 105
e 5 106
e 5 108
e 5 110
e 5 115
e 5 125
e 5 128
e 5 137
e 5 145
e 5 153
e 5 154
e 6 14
e 6 18
e 6 37
e 6 40
e 6 44
e 6 46
e 6 50
e 6 59
e 6 60
e 6 65
e 6 82
e 6 83
e 6 86
e 6 91
e 6 94
e 6 99
e 6 100
e 6 106
e 6 107
e 6 112
e 6 118
e 6 119
e 6 132
e 6 140
e 6 143
e 6 144
e 6 145
e 6 155
e 6 156
e 6 159
e 7 13
e 7 16
e 7 22
e 7 25
e 7 35
e 7 53
e 7 59
e 7 68
e 7 81
e 7 88
e 7 90
e 7 92
e 7 98
e 7 104
e 7 105
e 7 106
e 7 107
e 7 108
e 7 112
e 7 116
e 7 119
e 7 120
e 7 123
e 7 125
e 7 126
e 7 129
e 7 132
e 7 141
e 7 149
e 7 157
e 7 159
e 8 9
e 8 12
e 8 13
e 8 14
e 8 30
e 8 31
e 8 33
e 8 39
e 8 43
e 8 46
e 8 48
e 8 49
e 8 52
e 8 53
e 8 61
e 8 71
e 8 72
e 8 75
e 8 92
e 8 93
e 8 98
e 8 126
e 8 127
e 8 128
e 8 129
e 8 133
e 8 140
e 8 145
e 8 149
e 8 153
e 8 158
e 9 13
e 9 17
e 9 29
e 9 32
e 9 41
e 9 46
e 9 54
e 9 61
e 9 86
e 9 91
e 9 93
e 9 115
e 9 118
e 9 127
e 9 130
e 9 131
e 9 137
e 9 140
e 9 143
e 9 144
e 9 153
e 9 156
e 9 159
e 9 160
e 10 11
e 10 17
e 10 20
e 10 31
e 10 33
e 10 38
e 10 44
e 10 49
e 10 52
e 10 58
e 10 71
e 10 73
e 10 74
e 10 77
e 10 81
e 10 87
e 10 97
e 10 109
e 10 111
e 10 113
e 10 115
e 10 121
e 10 122
e 10 123
e 10 127
e 10 129
e 10 133
e 10 137
e 10 138
e 10 145
e 10 146
e 10 147
e 10 152
e 10 155
e 11 17
e 11 22
e 11 29
e 11 32
e 11 40
e 11 43
e 11 46
e 11 52
e 11 57
e 11 69
e 11 74
e 11 77
e 11 78
e 11 81
e 11 83
e 11 94
e 11 106
e 11 108
e 11 117
e 11 122
e 11 125
e 11 130
e 11 141
e 11 145
e 12 13
e 12 14
e 12 15
e 12 17
e 12 22
e 12 24
e 12 27
e 12 30
e 12 31
e 12 33
e 12 45
e 12 62
e 12 66
e 12 70
e 12 76
e 12 86
e 12 87
e 12 92
e 12 106
e 12 110
e 12 123
e 12 126
e 12 127
e 12 137
e 12 138
e 12 154
e 12 160
e 13 29
e 13 37
e 13 55
e 13 59
e 13 62
e 13 100
e 13 102
e 13 104
e 13 108
e 13 111
e 13 112
e 13 113
e 13 121
e 13 128
e 13 130
e 13 137
e 13 138
e 13 139
e 13 141
e 13 148
e 13 150
e 13 152
e 14 19
e 14 20
e 14 54
e 14 57
e 14 63
e 14 64
e 14 76
e 14 84
e 14 87
e 14 91
e 14 94
e 14 102
e 14 104
e 14 106
e 14 111
e 14 115
e 14 123
e 14 124
e 14 125
e 14 145
e 14 146
e 14 150
e 14 152
e 14 160
e 15 19
e 15 26
e 15 29
e 15 34
e 15 42
e 15 55
e 15 69
e 15 70
e 15 72
e 15 79
e 15 80
e 15 90
e 15 101
e 15 103
e 15 111
e 15 113
e 15 114
e 15 122
e 15 128
e 15 131
e 15 147
e 15 150
e 15 151
e 15 155
e 15 157
e 16 17
e 16 18
e 16 22
e 16 27
e 16 29
e 16 30
e 16 32
e 16 34
e 16 38
e 16 40
e 16 42
e 16 53
e 16 58
e 16 67
e 16 76
e 16 77
e 16 84
e 16 101
e 16 108
e 16 123
e 16 125
e 16 136
e 16 143
e 16 149
e 16 160
e 17 26
e 17 34
e 17 40
e 17 42
e 17 47
e 17 57
e 17 81
e 17 87
e 17 89
e 17 95
e 17 118
e 17 120
e 17 121
e 17 122
e 17 124
e 17 125
e 17 130
e 17 131
e 17 134
e 17 136
e 17 146
e 17 150
e 17 151
e 17 152
e 17 153
e 17 156
e 17 159
e 17 160
e 18 21
e 18 22
e 18 28
e 18 34
e 18 41
e 18 55
e 18 64
e 18 70
e 18 85
e 18 96
e 18 112
e 18 116
e 18 117
e 18 119
e 18 120
e 18 121
e 18 122
e 18 143
e 18 145
e 18 151
e 18 153
e 19 22
e 19 33
e 19 35
e 19 38
e 19 42
e 19 43
e 19 47
e 19 52
e 19 53
e 19 57
e 19 61
e 19 66
e 19 67
e 19 69
e 19 71
e 19 72
e 19 77
e 19 81
e 19 82
e 19 83
e 19 86
e 19 90
e 19 100
e 19 101
e 19 103
e 19 106
e 19 107
e 19 109
e 19 115
e 19 128
e 19 130
e 19 139
e 19 142
e 19 154
e 19 155
e 19 158
e 20 29
e 20 33
e 20 42
e 20 44
e 20 50
e 20 59
e 20 63
e 20 69
e 20 75
e 20 88
e 20 94
e 20 97
e 20 99
e 20 108
e 20 117
e 20 122
e 20 124
e 20 128
e 20 141
e 20 147
e 20 151
e 20 154
e 20 156
e 20 157
e 21 25
e 21 28
e 21 29
e 21 30
e 21 31
e 21 41
e 21 42
e 21 48
e 21 51
e 21 52
e 21 68
e 21 69
e 21 70
e 21 72
e 21 82
e 21 86
e 21 94
e 21 95
e 21 97
e 21 101
e 21 102
e 21 107
e 21 108
e 21 134
e 21 139
e 21 144
e 21 146
e 21 150
e 21 152
e 21 154
e 22 24
e 22 28
e 22 34
e 22 40
e 22 45
e 22 46
e 22 50
e 22 59
e 22 62
e 22 66
e 22 83
e 22 85
e 22 86
e 22 89
e 22 95
e 22 103
e 22 104
e 22 105
e 22 112
e 22 117
e 22 121
e 22 127
e 22 128
e 22 130
e 22 132
e 22 138
e 22 139
e 22 150
e 22 152
e 22 160
e 23 25
e 23 29
e 23 31
e 23 41
e 23 57
e 23 62
e 23 65
e 23 69
e 23 74
e 23 77
e 23 85
e 23 87
e 23 94
e 23 98
e 23 105
e 23 106
e 23 107
e 23 109
e 23 114
e 23 115
e 23 118
e 23 129
e 23 133
e 23 136
e 23 141
e 23 146
e 23 149
e 23 152
e 24 27
e 24 28
e 24 34
e 24 42
e 24 45
e 24 47
e 24 49
e 24 53
e 24 54
e 24 59
e 24 75
e 24 78
e 24 80
e 24 86
e 24 87
e 24 105
e 24 115
e 24 116
e 24 120
e 24 122
e 24 123
e 24 125
e 24 126
e 24 127
e 24 137
e 24 147
e 24 150
e 24 153
e 24 156
e 24 158
e 24 160
e 25 30
e 25 33
e 25 34
e 25 37
e 25 40
e 25 43
e 25 44
e 25 45
e 25 49
e 25 67
e 25 69
e 25 71
e 25 73
e 25 83
e 25 97
e 25 100
e 25 101
e 25 102
e 25 115
e 25 116
e 25 118
e 25 123
e 25 126
e 25 148
e 25 150
e 25 151
e 25 157
e 26 29
e 26 36
e 26 37
e 26 39
e 26 41
e 26 45
e 26 49
e 26 51
e 26 62
e 26 84
e 26 89
e 26 93
e 26 95
e 26 97
e 26 98
e 26 100
e 26 104
e 26 107
e 26 113
e 26 125
e 26 129
e 26 130
e 26 131
e 26 132
e 26 140
e 26 141
e 26 142
e 26 145
e 26 147
e 26 150
e 26 152
e 26 158
e 27 28
e 27 30
e 27 32
e 27 41
e 27 44
e 27 52
e 27 53
e 27 58
e 27 59
e 27 72
e 27 79
e 27 80
e 27 81
e 27 83
e 27 93
e 27 104
e 27 105
e 27 111
e 27 112
e 27 114
e 27 119
e 27 124
e 27 125
e 27 130
e 27 131
e 27 134
e 27 141
e 27 153
e 27 156
e 28 36
e 28 46
e 28 52
e 28 57
e 28 58
e 28 65
e 28 67
e 28 76
e 28 77
e 28 86
e 28 87
e 28 88
e 28 91
e 28 94
e 28 105
e 28 116
e 28 118
e 28 122
e 28 123
e 28 138
e 28 141
e 28 143
e 29 32
e 29 36
e 29 43
e 29 45
e 29 47
e 29 54
e 29 72
e 29 73
e 29 83
e 29 85
e 29 94
e 29 97
e 29 100
e 29 102
e 29 105
e 29 113
e 29 121
e 29 132
e 29 140
e 29 147
e 29 148
e 29 151
e 29 155
e 30 37
e 30 39
e 30 40
e 30 42
e 30 44
e 30 46
e 30 62
e 30 64
e 30 74
e 30 86
e 30 90
e 30 92
e 30 100
e 30 105
e 30 111
e 30 121
e 30 129
e 30 135
e 30 143
e 30 148
e 30 150
e 30 154
e 30 156
e 30 157
e 31 33
e 31 61
e 31 62
e 31 64
e 31 67
e 31 70
e 31 76
e 31 93
e 31 96
e 31 99
e 31 102
e 31 103
e 31 105
e 31 110
e 31 111
e 31 117
e 31 119
e 31 128
e 31 130
e 31 143
e 31 144
e 31 145
e 31 151
e 31 152
e 32 37
e 32 38
e 32 43
e 32 48
e 32 54
e 32 57
e 32 65
e 32 67
e 32 68
e 32 71
e 32 72
e 32 84
e 32 86
e 32 90
e 32 92
e 32 109
e 32 110
e 32 113
e 32 114
e 32 115
e 32 130
e 32 141
e 32 143
e 33 36
e 33 38
e 33 42
e 33 43
e 33 52
e 33 54
e 33 55
e 33 56
e 33 58
e 33 59
e 33 61
e 33 62
e 33 64
e 33 67
e 33 68
e 33 71
e 33 72
e 33 73
e 33 78
e 33 80
e 33 86
e 33 91
e 33 95
e 33 96
e 33 97
e 33 100
e 33 101
e 33 105
e 33 110
e 33 113
e 33 123
e 33 125
e 33 127
e 33 128
e 33 129
e 33 131
e 33 134
e 33 153
e 33 156
e 34 37
e 34 38
e 34 50
e 34 53
e 34 54
e 34 59
e 34 60
e 34 62
e 34 63
e 34 70
e 34 72
e 34 76
e 34 96
e 34 112
e 34 120
e 34 145
e 34 150
e 34 152
e 34 158
e 34 159
e 34 160
e 35 40
e 35 44
e 35 45
e 35 49
e 35 55
e 35 64
e 35 81
e 35 82
e 35 84
e 35 85
e 35 109
e 35 119
e 35 120
e 35 121
e 35 132
e 35 135
e 35 144
e 35 145
e 35 150
e 35 153
e 36 38
e 36 39
e 36 40
e 36 42
e 36 45
e 36 48
e 36 50
e 36 51
e 36 53
e 36 57
e 36 58
e 36 62
e 36 66
e 36 70
e 36 74
e 36 86
e 36 88
e 36 92
e 36 99
e 36 107
e 36 119
e 36 125
e 36 126
e 36 132
e 36 144
e 36 146
e 36 148
e 36 151
e 36 152
e 37 50
e 37 55
e 37 56
e 37 58
e 37 60
e 37 65
e 37 67
e 37 70
e 37 76
e 37 81
e 37 84
e 37 85
e 37 87
e 37 92
e 37 103
e 37 111
e 37 112
e 37 118
e 37 119
e 37 120
e 37 122
e 37 132
e 37 133
e 37 140
e 37 141
e 37 142
e 37 143
e 37 150
e 38 51
e 38 53
e 38 55
e 38 62
e 38 63
e 38 67
e 38 68
e 38 74
e 38 92
e 38 99
e 38 108
e 38 119
e 38 130
e 38 138
e 38 141
e 38 143
e 38 146
e 38 147
e 38 152
e 38 153
e 38 155
e 38 159
e 38 160
e 39 40
e 39 41
e 39 50
e 39 56
e 39 69
e 39 70
e 39 72
e 39 77
e 39 78
e 39 80
e 39 83
e 39 85
e 39 99
e 39 100
e 39 102
e 39 109
e 39 115
e 39 124
e 39 128
e 39 129
e 39 132
e 39 136
e 39 143
e 39 154
e 39 156
e 40 41
e 40 47
e 40 52
e 40 55
e 40 56
e 40 57
e 40 61
e 40 66
e 40 81
e 40 85
e 40 88
e 40 91
e 40 94
e 40 104
e 40 105
e 40 106
e 40 108
e 40 112
e 40 119
e 40 120
e 40 124
e 40 125
e 40 132
e 40 137
e 40 141
e 40 142
e 40 145
e 40 147
e 41 42
e 41 50
e 41 51
e 41 52
e 41 55
e 41 56
e 41 57
e 41 67
e 41 71
e 41 76
e 41 79
e 41 84
e 41 85
e 41 88
e 41 92
e 41 102
e 41 113
e 41 115
e 41 116
e 41 122
e 41 124
e 41 128
e 41 133
e 41 136
e 41 140
e 41 141
e 41 142
e 41 143
e 41 148
e 41 150
e 41 157
e 42 43
e 42 46
e 42 51
e 42 58
e 42 64
e 42 69
e 42 73
e 42 81
e 42 88
e 42 89
e 42 94
e 42 99
e 42 101
e 42 109
e 42 110
e 42 113
e 42 117
e 42 118
e 42 128
e 42 137
e 42 138
e 42 158
e 42 160
e 43 45
e 43 47
e 43 52
e 43 64
e 43 73
e 43 89
e 43 91
e 43 100
e 43 103
e 43 106
e 43 108
e 43 112
e 43 117
e 43 126
e 43 136
e 43 138
e 43 142
e 43 145
e 43 148
e 43 155
e 43 156
e 43 158
e 44 56
e 44 57
e 44 65
e 44 70
e 44 73
e 44 77
e 44 78
e 44 84
e 44 88
e 44 92
e 44 94
e 44 98
e 44 101
e 44 115
e 44 117
e 44 124
e 44 125
e 44 132
e 44 134
e 44 140
e 44 142
e 44 144
e 44 145
e 44 151
e 44 154
e 44 157
e 45 51
e 45 54
e 45 63
e 45 64
e 45 66
e 45 77
e 45 80
e 45 82
e 45 88
e 45 89
e 45 98
e 45 99
e 45 103
e 45 104
e 45 105
e 45 106
e 45 112
e 45 117
e 45 118
e 45 120
e 45 123
e 45 127
e 45 148
e 45 153
e 45 156
e 45 159
e 45 160
e 46 47
e 46 51
e 46 67
e 46 71
e 46 74
e 46 82
e 46 91
e 46 109
e 46 110
e 46 113
e 46 124
e 46 129
e 46 132
e 46 135
e 46 153
e 46 156
e 47 48
e 47 56
e 47 59
e 47 63
e 47 65
e 47 69
e 47 71
e 47 79
e 47 91
e 47 93
e 47 98
e 47 100
e 47 104
e 47 106
e 47 107
e 47 110
e 47 111
e 47 113
e 47 115
e 47 118
e 47 122
e 47 124
e 47 127
e 47 128
e 47 132
e 47 148
e 47 153
e 48 56
e 48 61
e 48 71
e 48 78
e 48 79
e 48 89
e 48 92
e 48 94
e 48 95
e 48 100
e 48 102
e 48 108
e 48 112
e 48 114
e 48 116
e 48 122
e 48 128
e 48 136
e 48 153
e 48 158
e 48 159
e 48 160
e 49 54
e 49 55
e 49 61
e 49 66
e 49 67
e 49 73
e 49 74
e 49 75
e 49 77
e 49 79
e 49 80
e 49 81
e 49 82
e 49 89
e 49 97
e 49 103
e 49 108
e 49 122
e 49 125
e 49 126
e 49 144
e 49 146
e 49 148
e 49 150
e 50 53
e 50 55
e 50 57
e 50 58
e 50 63
e 50 68
e 50 81
e 50 84
e 50 85
e 50 90
e 50 91
e 50 97
e 50 99
e 50 106
e 50 107
e 50 118
e 50 121
e 50 123
e 50 124
e 50 129
e 50 132
e 50 133
e 50 136
e 50 138
e 50 144
e 50 150
e 50 152
e 50 157
e 51 52
e 51 55
e 51 60
e 51 61
e 51 70
e 51 71
e 51 73
e 51 81
e 51 83
e 51 84
e 51 87
e 51 107
e 51 109
e 51 124
e 51 134
e 51 137
e 51 139
e 51 140
e 51 141
e 51 146
e 51 151
e 51 155
e 52 53
e 52 54
e 52 56
e 52 58
e 52 71
e 52 76
e 52 83
e 52 84
e 52 88
e 52 90
e 52 92
e 52 96
e 52 97
e 52 102
e 52 104
e 52 111
e 52 117
e 52 125
e 52 127
e 52 130
e 52 135
e 52 136
e 52 137
e 52 139
e 52 142
e 52 145
e 52 157
e 53 58
e 53 63
e 53 64
e 53 66
e 53 74
e 53 75
e 53 79
e 53 81
e 53 84
e 53 85
e 53 89
e 53 90
e 53 92
e 53 93
e 53 94
e 53 95
e 53 99
e 53 102
e 53 121
e 53 134
e 53 136
e 53 139
e 53 143
e 53 147
e 53 150
e 53 159
e 53 160
e 54 57
e 54 58
e 54 69
e 54 73
e 54 79
e 54 90
e 54 95
e 54 100
e 54 104
e 54 106
e 54 110
e 54 114
e 54 116
e 54 126
e 54 132
e 54 133
e 54 136
e 54 145
e 54 147
e 54 149
e 54 150
e 54 152
e 54 154
e 54 157
e 54 158
e 54 159
e 55 64
e 55 65
e 55 67
e 55 68
e 55 70
e 55 72
e 55 80
e 55 81
e 55 83
e 55 94
e 55 98
e 55 112
e 55 119
e 55 130
e 55 155
e 55 160
e 56 57
e 56 65
e 56 72
e 56 77
e 56 78
e 56 82
e 56 89
e 56 90
e 56 105
e 56 106
e 56 125
e 56 134
e 56 138
e 56 141
e 56 143
e 56 144
e 56 145
e 56 153
e 57 59
e 57 64
e 57 65
e 57 66
e 57 68
e 57 69
e 57 72
e 57 82
e 57 84
e 57 86
e 57 91
e 57 94
e 57 95
e 57 97
e 57 108
e 57 110
e 57 111
e 57 114
e 57 121
e 57 124
e 57 125
e 57 134
e 57 137
e 57 138
e 57 155
e 58 59
e 58 68
e 58 84
e 58 96
e 58 99
e 58 102
e 58 104
e 58 109
e 58 113
e 58 115
e 58 119
e 58 121
e 58 126
e 58 132
e 58 139
e 58 158
e 59 66
e 59 68
e 59 70
e 59 71
e 59 79
e 59 91
e 59 92
e 59 93
e 59 98
e 59 119
e 59 124
e 59 126
e 59 129
e 59 134
e 59 140
e 59 141
e 59 143
e 59 146
e 59 151
e 59 153
e 60 61
e 60 65
e 60 68
e 60 72
e 60 79
e 60 80
e 60 88
e 60 95
e 60 100
e 60 102
e 60 104
e 60 108
e 60 116
e 60 129
e 60 132
e 60 134
e 60 144
e 60 153
e 61 77
e 61 79
e 61 80
e 61 87
e 61 89
e 61 92
e 61 93
e 61 96
e 61 99
e 61 100
e 61 104
e 61 120
e 61 122
e 61 128
e 61 136
e 61 140
e 61 141
e 61 146
e 61 155
e 61 160
e 62 66
e 62 76
e 62 82
e 62 83
e 62 84
e 62 90
e 62 92
e 62 96
e 62 104
e 62 105
e 62 113
e 62 114
e 62 127
e 62 128
e 62 133
e 62 142
e 62 149
e 62 151
e 62 154
e 63 65
e 63 72
e 63 78
e 63 79
e 63 80
e 63 88
e 63 90
e 63 94
e 63 97
e 63 104
e 63 106
e 63 107
e 63 114
e 63 126
e 63 128
e 63 129
e 63 134
e 63 136
e 63 138
e 63 147
e 64 65
e 64 70
e 64 76
e 64 77
e 64 82
e 64 84
e 64 87
e 64 95
e 64 97
e 64 100
e 64 102
e 64 111
e 64 112
e 64 114
e 64 115
e 64 117
e 64 118
e 64 119
e 64 123
e 64 124
e 64 132
e 64 139
e 64 146
e 64 152
e 64 154
e 65 66
e 65 70
e 65 71
e 65 72
e 65 75
e 65 86
e 65 92
e 65 93
e 65 98
e 65 100
e 65 111
e 65 113
e 65 116
e 65 122
e 65 124
e 65 126
e 65 129
e 65 131
e 65 138
e 65 140
e 65 142
e 65 144
e 65 149
e 65 152
e 65 153
e 65 158
e 65 159
e 66 67
e 66 82
e 66 91
e 66 94
e 66 97
e 66 111
e 66 112
e 66 134
e 66 138
e 66 139
e 66 140
e 66 142
e 66 145
e 66 148
e 66 159
e 67 69
e 67 73
e 67 87
e 67 90
e 67 95
e 67 100
e 67 107
e 67 114
e 67 120
e 67 121
e 67 131
e 67 134
e 67 135
e 67 145
e 67 152
e 67 156
e 67 157
e 68 74
e 68 77
e 68 81
e 68 90
e 68 91
e 68 93
e 68 98
e 68 99
e 68 113
e 68 119
e 68 120
e 68 122
e 68 127
e 68 128
e 68 130
e 68 133
e 68 134
e 68 135
e 68 139
e 68 140
e 68 144
e 68 153
e 68 155
e 69 71
e 69 72
e 69 78
e 69 90
e 69 92
e 69 99
e 69 107
e 69 115
e 69 116
e 69 118
e 69 126
e 69 127
e 69 137
e 69 139
e 69 140
e 69 145
e 69 148
e 69 156
e 70 72
e 70 77
e 70 82
e 70 90
e 70 91
e 70 102
e 70 106
e 70 110
e 70 112
e 70 127
e 70 142
e 70 147
e 70 148
e 70 150
e 70 155
e 70 156
e 70 157
e 70 158
e 71 76
e 71 80
e 71 89
e 71 101
e 71 103
e 71 109
e 71 110
e 71 111
e 71 114
e 71 119
e 71 123
e 71 135
e 71 137
e 71 143
e 71 146
e 71 150
e 72 84
e 72 87
e 72 90
e 72 97
e 72 109
e 72 119
e 72 124
e 72 127
e 72 129
e 72 130
e 72 131
e 72 140
e 73 98
e 73 100
e 73 102
e 73 110
e 73 112
e 73 114
e 73 117
e 73 123
e 73 125
e 73 127
e 73 131
e 73 133
e 73 141
e 73 152
e 73 153
e 73 156
e 74 83
e 74 91
e 74 92
e 74 94
e 74 98
e 74 105
e 74 108
e 74 113
e 74 115
e 74 130
e 74 139
e 74 145
e 74 153
e 74 156
e 75 80
e 75 86
e 75 92
e 75 93
e 75 96
e 75 101
e 75 111
e 75 112
e 75 113
e 75 116
e 75 122
e 75 128
e 75 137
e 75 138
e 75 145
e 75 148
e 75 149
e 75 153
e 75 157
e 75 159
e 75 160
e 76 81
e 76 85
e 76 87
e 76 90
e 76 95
e 76 102
e 76 104
e 76 107
e 76 116
e 76 124
e 76 127
e 76 128
e 76 129
e 76 130
e 76 158
e 77 100
e 77 107
e 77 112
e 77 117
e 77 119
e 77 120
e 77 121
e 77 122
e 77 123
e 77 126
e 77 128
e 77 135
e 77 138
e 77 142
e 77 145
e 77 146
e 77 154
e 77 155
e 77 157
e 78 85
e 78 94
e 78 95
e 78 99
e 78 101
e 78 105
e 78 106
e 78 124
e 78 135
e 78 142
e 78 145
e 78 151
e 78 152
e 78 159
e 79 88
e 79 90
e 79 91
e 79 99
e 79 102
e 79 108
e 79 113
e 79 116
e 79 117
e 79 120
e 79 126
e 79 140
e 79 142
e 79 144
e 79 154
e 79 160
e 80 84
e 80 85
e 80 87
e 80 88
e 80 92
e 80 94
e 80 99
e 80 106
e 80 109
e 80 121
e 80 124
e 80 127
e 80 133
e 80 134
e 80 138
e 80 141
e 80 146
e 80 149
e 80 156
e 81 84
e 81 92
e 81 105
e 81 109
e 81 114
e 81 134
e 81 137
e 81 140
e 81 148
e 81 153
e 82 83
e 82 85
e 82 88
e 82 94
e 82 95
e 82 98
e 82 101
e 82 105
e 82 110
e 82 115
e 82 117
e 82 119
e 82 120
e 82 122
e 82 138
e 82 142
e 82 152
e 83 88
e 83 91
e 83 92
e 83 101
e 83 105
e 83 106
e 83 118
e 83 120
e 83 125
e 83 126
e 83 127
e 83 130
e 83 138
e 83 145
e 83 156
e 83 159
e 84 87
e 84 89
e 84 90
e 84 94
e 84 96
e 84 98
e 84 99
e 84 104
e 84 109
e 84 114
e 84 128
e 84 129
e 84 134
e 84 136
e 84 143
e 84 150
e 84 154
e 85 88
e 85 101
e 85 105
e 85 122
e 85 124
e 85 131
e 85 143
e 85 160
e 86 96
e 86 98
e 86 99
e 86 104
e 86 114
e 86 117
e 86 127
e 86 135
e 86 137
e 86 140
e 86 141
e 86 149
e 86 151
e 86 152
e 86 157
e 87 92
e 87 104
e 87 113
e 87 114
e 87 118
e 87 119
e 87 123
e 87 128
e 87 132
e 87 133
e 87 134
e 87 143
e 87 145
e 87 151
e 87 153
e 87 154
e 87 156
e 87 159
e 87 160
e 88 91
e 88 99
e 88 103
e 88 112
e 88 115
e 88 117
e 88 128
e 88 136
e 88 141
e 88 143
e 88 145
e 88 146
e 88 147
e 88 157
e 89 96
e 89 100
e 89 110
e 89 112
e 89 113
e 89 115
e 89 119
e 89 121
e 89 123
e 89 127
e 89 128
e 89 132
e 89 137
e 89 139
e 89 153
e 89 157
e 90 100
e 90 107
e 90 125
e 90 154
e 91 93
e 91 101
e 91 102
e 91 103
e 91 104
e 91 107
e 91 112
e 91 113
e 91 114
e 91 115
e 91 119
e 91 121
e 91 148
e 91 154
e 91 156
e 91 158
e 92 93
e 92 95
e 92 105
e 92 110
e 92 111
e 92 112
e 92 116
e 92 127
e 92 144
e 92 155
e 92 156
e 93 100
e 93 102
e 93 103
e 93 107
e 93 109
e 93 112
e 93 113
e 93 116
e 93 127
e 93 139
e 93 147
e 93 148
e 94 101
e 94 102
e 94 103
e 94 105
e 94 110
e 94 111
e 94 114
e 94 115
e 94 116
e 94 123
e 94 124
e 94 127
e 94 129
e 94 137
e 94 138
e 94 147
e 94 149
e 94 156
e 94 158
e 95 96
e 95 102
e 95 120
e 95 121
e 95 128
e 95 129
e 95 149
e 95 156
e 96 102
e 96 108
e 96 130
e 96 131
e 96 142
e 96 143
e 96 145
e 96 149
e 96 153
e 96 155
e 97 98
e 97 101
e 97 108
e 97 110
e 97 114
e 97 115
e 97 123
e 97 136
e 97 151
e 97 154
e 97 159
e 98 102
e 98 105
e 98 118
e 98 122
e 98 123
e 98 125
e 98 131
e 98 134
e 98 143
e 98 144
e 98 146
e 98 151
e 98 153
e 98 158
e 99 102
e 99 103
e 99 104
e 99 112
e 99 113
e 99 115
e 99 120
e 99 122
e 99 124
e 99 131
e 99 136
e 99 141
e 99 149
e 99 153
e 99 155
e 100 106
e 100 107
e 100 109
e 100 110
e 100 113
e 100 117
e 100 121
e 100 122
e 100 123
e 100 124
e 100 126
e 100 127
e 100 129
e 100 130
e 100 132
e 100 143
e 100 145
e 100 147
e 100 154
e 100 155
e 100 158
e 101 104
e 101 108
e 101 116
e 101 127
e 101 128
e 101 133
e 101 151
e 102 104
e 102 108
e 102 121
e 102 126
e 102 129
e 102 138
e 102 148
e 102 153
e 103 104
e 103 107
e 103 110
e 103 111
e 103 113
e 103 115
e 103 118
e 103 120
e 103 122
e 103 126
e 103 134
e 103 150
e 103 154
e 103 156
e 103 157
e 103 160
e 104 110
e 104 111
e 104 118
e 104 122
e 104 123
e 104 125
e 104 135
e 104 145
e 104 157
e 105 110
e 105 113
e 105 114
e 105 117
e 105 123
e 105 127
e 105 133
e 105 136
e 105 137
e 105 142
e 105 159
e 106 108
e 106 112
e 106 116
e 106 134
e 106 135
e 106 142
e 106 147
e 106 151
e 106 152
e 106 157
e 107 110
e 107 116
e 107 124
e 107 127
e 107 129
e 107 131
e 107 132
e 107 136
e 107 141
e 107 142
e 107 145
e 107 160
e 108 112
e 108 114
e 108 116
e 108 121
e 108 127
e 108 131
e 108 132
e 108 143
e 108 144
e 108 147
e 108 152
e 108 153
e 108 159
e 109 113
e 109 114
e 109 133
e 109 141
e 109 144
e 109 149
e 109 159
e 110 117
e 110 121
e 110 122
e 110 123
e 110 130
e 110 131
e 110 135
e 110 136
e 110 137
e 110 157
e 110 158
e 111 114
e 111 122
e 111 127
e 111 132
e 111 133
e 111 142
e 111 145
e 111 147
e 111 148
e 111 150
e 111 152
e 111 155
e 112 140
e 112 146
e 112 148
e 112 154
e 112 159
e 112 160
e 113 117
e 113 118
e 113 125
e 113 128
e 113 129
e 113 130
e 113 131
e 113 133
e 113 136
e 113 144
e 113 145
e 113 149
e 113 153
e 113 155
e 114 115
e 114 116
e 114 119
e 114 132
e 114 133
e 114 136
e 114 137
e 114 138
e 114 143
e 114 154
e 114 157
e 114 159
e 115 117
e 115 118
e 115 120
e 115 128
e 115 129
e 115 137
e 115 142
e 115 157
e 115 160
e 116 117
e 116 122
e 116 128
e 116 134
e 116 140
e 116 141
e 116 144
e 116 145
e 116 147
e 116 151
e 116 152
e 117 125
e 117 130
e 117 131
e 117 150
e 117 152
e 117 159
e 117 160
e 118 122
e 118 125
e 118 127
e 118 128
e 118 130
e 118 136
e 118 137
e 119 124
e 119 125
e 119 133
e 119 143
e 119 144
e 119 145
e 119 151
e 119 157
e 119 159
e 120 124
e 120 127
e 120 129
e 120 138
e 120 145
e 120 152
e 121 124
e 121 127
e 121 135
e 121 136
e 121 141
e 121 147
e 121 149
e 121 150
e 121 154
e 122 130
e 122 138
e 122 148
e 122 149
e 122 154
e 123 125
e 123 131
e 123 134
e 123 137
e 123 141
e 123 142
e 123 144
e 123 149
e 124 127
e 124 129
e 124 133
e 124 137
e 124 139
e 124 144
e 124 151
e 125 126
e 125 128
e 125 130
e 125 137
e 125 142
e 125 143
e 125 144
e 125 147
e 125 148
e 125 154
e 125 157
e 126 132
e 126 138
e 126 147
e 126 148
e 126 151
e 126 159
e 127 129
e 127 131
e 127 133
e 127 138
e 127 142
e 127 146
e 127 147
e 127 150
e 127 154
e 128 137
e 128 147
e 128 149
e 128 153
e 129 132
e 129 136
e 129 137
e 129 143
e 129 146
e 129 147
e 129 149
e 129 153
e 130 139
e 130 140
e 130 141
e 130 149
e 130 153
e 130 156
e 131 132
e 131 141
e 131 145
e 131 159
e 131 160
e 132 133
e 132 138
e 132 140
e 132 141
e 132 143
e 132 144
e 132 151
e 132 152
e 133 142
e 133 143
e 134 135
e 134 137
e 134 141
e 134 149
e 134 158
e 135 138
e 135 139
e 135 140
e 135 144
e 135 145
e 135 160
e 136 138
e 136 139
e 136 142
e 136 144
e 136 146
e 136 148
e 136 151
e 136 160
e 137 144
e 137 155
e 138 146
e 138 148
e 139 144
e 139 145
e 139 150
e 139 154
e 139 155
e 139 158
e 140 146
e 140 149
e 140 151
e 140 155
e 141 157
e 142 143
e 142 145
e 142 153
e 142 157
e 143 144
e 143 147
e 143 151
e 143 152
e 143 158
e 144 145
e 144 152
e 144 156
e 144 159
e 145 146
e 145 149
e 145 152
e 145 153
e 145 158
e 146 147
e 146 158
e 146 160
e 147 148
e 147 149
e 147 152
e 148 150
e 148 152
e 149 154
e 150 151
e 151 156
e 152 153
e 152 157
e 153 154
e 156 158
